893508846333179617502,8,1,2,05,12,1,2,013,4,1,2,05,11,1,2,07,11,1,2,02,8,1,2,010,1,1,2,08,10,1,2,013,10,1,2,08,6,1,2,01,9,1,2,03,5,1,2,011,5,1,2,011,8,1,2,01,8,1,2,02,10,1,2,05,10,1,2,05,4,1,2,014,6,1,2,010,2,1,2,015,7,1,2,05,13,1,2,011,9,1,2,012,7,1,2,04,10,1,2,014,3,1,2,05,9,1,2,02,10,1,2,04,12,1,2,09,4,1,2,08,2,1,2,03,4,1,2,015,10,1,2,014,10,1,2,09,2,1,2,06,9,1,2,013,10,1,2,010,2,1,2,05,10,1,2,03,12,1,2,07,4,1,2,07,5,1,2,01,11,1,2,06,14,1,2,05,9,1,2,02,15,1,2,04,9,1,2,010,11,1,2,09,5,1,2,08,6,1,2,0